solution status: optimal solution found
objective value:                                    1
x57                                                 1 	(obj:1)
$_283_y                                            23 	(obj:0)
$_283_z                                            19 	(obj:0)
$_229_y                                            23 	(obj:0)
$_229_z                                            21 	(obj:0)
$_147_y                                            25 	(obj:0)
$_147_z                                            22 	(obj:0)
$_212_y                                            24 	(obj:0)
$_212_z                                            23 	(obj:0)
$_104_y                                            22 	(obj:0)
$_104_z                                            18 	(obj:0)
$_73_y                                             17 	(obj:0)
$_73_z                                             13 	(obj:0)
$_171_y                                            24 	(obj:0)
$_171_z                                            22 	(obj:0)
$_71_y                                             18 	(obj:0)
$_71_z                                             13 	(obj:0)
$_185_y                                            21 	(obj:0)
$_185_z                                            19 	(obj:0)
$_226_y                                            20 	(obj:0)
$_226_z                                            19 	(obj:0)
$_188_y                                            23 	(obj:0)
$_188_z                                            22 	(obj:0)
$_51_y                                             18 	(obj:0)
$_51_z                                             16 	(obj:0)
$_253_y                                            23 	(obj:0)
$_253_z                                            20 	(obj:0)
$_270_y                                            24 	(obj:0)
$_270_z                                            19 	(obj:0)
$_105_y                                            21 	(obj:0)
$_105_z                                            21 	(obj:0)
$_267_y                                            20 	(obj:0)
$_267_z                                            16 	(obj:0)
$_49_y                                             19 	(obj:0)
$_49_z                                             16 	(obj:0)
